unsat
(:max-memory         18.27
 :memory             18.17
 :nlsat-conflicts    1
 :nlsat-propagations 5
 :nlsat-stages       1
 :num-allocs         85779
 :rlimit-count       8611
 :time               0.01
 :total-time         0.02)
